CPAchecker/output/Counterexample.1.smt2
(declare-fun |main::rng2@2| () Int)
(declare-fun |main::rng1@3| () Int)
(declare-fun |main::seed1@2| () Int)
(declare-fun |main::__CPAchecker_TMP_2@3| () Int)
(declare-fun p2 () Int)
(declare-fun |main::seed2@2| () Int)
(declare-fun A1@2 () Int)
(declare-fun |main::__CPAchecker_TMP_0@3| () Int)
(declare-fun p1 () Int)
(assert (and (= A1@2 101) (= |main::__CPAchecker_TMP_0@3| p1) (= |main::__CPAchecker_TMP_0@3| 0) (= |main::seed1@2| A1@2) (= |main::seed2@2| A1@2) (= |main::seed1@2| |main::seed2@2|) (= |main::__CPAchecker_TMP_2@3| p2) (= |main::__CPAchecker_TMP_2@3| 0) (= |main::rng1@3| |main::seed1@2|) (not (= |main::rng1@3| |main::rng2@2|))))